CPLEX Parameter File Version 22.1.0.0
CPXPARAM_MIP_Cuts_LocalImplied 0
CPXPARAM_MIP_Cuts_Cliques 0
CPXPARAM_MIP_Cuts_Covers 0
CPXPARAM_MIP_Cuts_Disjunctive 0
CPXPARAM_MIP_Cuts_LiftProj 0
CPXPARAM_MIP_Cuts_Implied 0
CPXPARAM_MIP_Cuts_BQP 0
CPXPARAM_MIP_Cuts_FlowCovers 0
CPXPARAM_MIP_Cuts_PathCut 0
CPXPARAM_MIP_Cuts_Gomory 0
CPXPARAM_MIP_Cuts_GUBCovers 0
CPXPARAM_MIP_Cuts_MIRCut 0
CPXPARAM_MIP_Cuts_RLT 0
CPXPARAM_MIP_Cuts_ZeroHalfCut 0
CPXPARAM_MIP_Cuts_MCFCut 0
